20 53 113
1 13 1
1 14 5
1 17 1
2 3 1
2 4 1
2 5 5
2 7 2
2 14 5
2 18 1
3 4 3
3 5 1
3 9 1
3 11 2
3 16 4
3 19 5
3 20 5
4 5 4
4 9 4
4 13 1
4 17 1
4 19 3
5 8 2
5 11 5
5 13 4
5 19 5
6 9 2
6 12 5
6 13 2
7 12 2
7 14 2
7 17 3
7 18 1
7 19 3
7 20 1
8 14 3
8 16 2
9 11 4
9 14 3
9 17 5
9 20 2
10 11 1
10 12 2
10 13 3
10 15 4
11 12 4
11 19 5
13 14 2
13 16 3
14 16 3
14 17 3
14 18 1
16 20 2
17 20 1
